NAME : A-n61-k9-40
TYPE : VRP-D
DIMENSION : 40
CAPACITY : 100
NODE_COORD_SECTION 
 1 61 37
 2 93 57
 3 15 67
 4 23 43
 5 53 5
 6 13 75
 7 29 73
 8 47 37
 9 23 71
 10 67 45
 11 21 49
 12 93 43
 13 67 13
 14 69 25
 15 53 35
 16 25 39
 17 85 69
 18 81 27
 19 77 79
 20 45 43
 21 31 75
 22 49 99
 23 63 9
 24 47 37
 25 33 47
 26 39 69
 27 49 3
 28 49 87
 29 87 39
 30 37 91
 31 19 33
 32 97 35
 33 31 5
 34 35 25
 35 79 61
 36 73 73
 37 35 95
 38 5 43
 39 19 45
 40 71 39
DEMAND_SECTION 
1 0 
2 23 
3 17 
4 12 
5 6 
6 22 
7 3 
8 24 
9 24 
10 11 
11 7 
12 12 
13 8 
14 14 
15 20 
16 16 
17 16 
18 4 
19 9 
20 18 
21 14 
22 10 
23 19 
24 22 
25 19 
26 9 
27 18 
28 2 
29 18 
30 11 
31 19 
32 18 
33 15 
34 4 
35 12 
36 8 
37 18 
38 12 
39 72 
40 2 
DEPOT_SECTION 
 1  
 -1  
EOF 
